c --- [ banner ] -------------------------------------------------------------
c 
c CaDiCaL SAT Solver
c Copyright (c) 2016-2023 A. Biere, M. Fleury, N. Froleyks, K. Fazekas, F. Pollitt
c 
c Version 1.9.5
c g++ (Ubuntu 11.4.0-1ubuntu1~22.04) 11.4.0 -Wall -Wextra -O3 -DNDEBUG -static
c Thu Mar 7 06:16:21 CET 2024 Linux pc101447 6.5.0-17-generic x86_64
c 
c --- [ limit ] --------------------------------------------------------------
c 
c setting time limit to 3600 seconds real time (due to '-t 3600')
c 
c --- [ parsing input ] ------------------------------------------------------
c 
c reading DIMACS file from '/home/oliveras/SAT-comp-2023//02066c116dbacc40ec5cca2067db26c0-mrpp_4x4#12_12.cnf'
c opening file to read '/home/oliveras/SAT-comp-2023//02066c116dbacc40ec5cca2067db26c0-mrpp_4x4#12_12.cnf'
c found 'p cnf 2672 16408' header
c parsed 16408 clauses in 0.01 seconds process time
c 
c --- [ options ] ------------------------------------------------------------
c 
c   --seed=1                       (different from default '0')
c 
c --- [ solving ] ------------------------------------------------------------
c 
c time measured in process time since initialization
c 
c  seconds  reductions  redundant  irredundant
c         MB    restarts       trail     variables
c          level   conflicts       glue       remaining
c 
c *  0.02  3  0 0   0    0    0  0% 0 16280 2372 89%
c {  0.02  3  0 0   0    0    0  0% 0 16280 2372 89%
c i  0.02  3  1 0   0    1    0  8% 0 16280 2371 89%
c i  0.02  3  1 0   0    3    1  8% 0 16280 2370 89%
c i  0.02  3  1 0   0    5    1  8% 0 16280 2369 89%
c i  0.02  3  2 0   0    7    2  9% 0 16280 2368 89%
c i  0.02  3  3 0   0    9    2  9% 0 16280 2367 89%
c i  0.02  3  3 0   0   11    3  9% 0 16280 2366 89%
c i  0.02  3  4 0   0   12    3 10% 0 16280 2365 89%
c i  0.02  3  4 0   0   13    3 10% 0 16280 2364 88%
c i  0.02  3  4 0   0   14    3 10% 0 16280 2363 88%
c i  0.02  3  4 0   0   15    3 10% 0 16280 2362 88%
c i  0.02  3  5 0   0   16    3 10% 0 16280 2361 88%
c i  0.02  3  5 0   0   17    3 10% 0 16280 2360 88%
c i  0.02  3  5 0   0   18    3 11% 0 16280 2359 88%
c i  0.02  3  5 0   0   19    3 11% 0 16280 2358 88%
c i  0.02  3  5 0   0   20    3 11% 0 16280 2357 88%
c i  0.02  3  5 0   0   21    3 11% 0 16280 2356 88%
c i  0.02  3  5 0   0   22    3 11% 0 16280 2355 88%
c i  0.02  3  5 0   0   23    3 11% 0 16280 2354 88%
c 
c  seconds  reductions  redundant  irredundant
c         MB    restarts       trail     variables
c          level   conflicts       glue       remaining
c 
c i  0.02  3 35 0  11   61   38 17% 1 16279 2353 88%
c i  0.02  3 35 0  11   62   38 18% 1 16279 2352 88%
c i  0.02  3 119 0  41  188  136 36% 2 16264 2351 88%
c i  0.02  3 121 0  41  189  136 37% 2 16264 2350 88%
c i  0.02  3 122 0  41  190  136 37% 2 16264 2349 88%
c i  0.02  3 123 0  41  191  136 37% 2 16264 2348 88%
c i  0.02  3 125 0  41  192  136 38% 2 16264 2347 88%
c i  0.02  3 126 0  41  193  136 38% 2 16264 2346 88%
c i  0.02  3 127 0  41  194  136 38% 2 16264 2345 88%
c i  0.02  3 129 0  41  195  136 39% 2 16264 2344 88%
c i  0.02  3 130 0  41  196  136 39% 2 16264 2343 88%
c i  0.02  3 131 0  41  197  136 39% 2 16264 2342 88%
c i  0.02  3 133 0  41  198  136 39% 2 16264 2341 88%
c i  0.02  3 134 0  41  199  136 40% 2 16264 2340 88%
c i  0.02  3 135 0  41  200  136 40% 2 16264 2339 88%
c i  0.02  3 136 0  41  201  136 40% 1 16264 2338 88%
c i  0.02  3 142 0  41  208  138 42% 1 16263 2337 87%
c -  0.03  3 159 1  59  301  211 48% 2 14163 2337 87%
c i  0.03  3 154 1  87  398  288 50% 2 14155 2336 87%
c i  0.03  3 153 1  87  399  288 50% 2 14155 2335 87%
c 
c  seconds   reductions  redundant  irredundant
c         MB     restarts       trail     variables
c           level   conflicts       glue       remaining
c 
c i  0.03  3 149 1  97  436  311 49% 2 14150 2333 87%
c i  0.04  3 125 1 176  801  554 47% 2 14091 2332 87%
c -  0.05  4 127 2 187  901  625 49% 2 14063 2332 87%
c }  0.06  4 126 2 213 1002  704 49% 2 14053 2332 87%
c [  0.06  4  0 2 213 1002  704  0% 0 14053 2332 87%
c O  0.06  4  2 2 213 1004  704  9% 0 14052 2332 87%
c i  0.06  4  1 2 213 1012  704  9% 0 14047 2331 87%
c i  0.06  4  1 2 213 1016  704  9% 0 14045 2330 87%
c i  0.06  4 147 2 213 1132  732 37% 2 13999 2328 87%
c i  0.06  4 156 2 213 1260  847 48% 2 13996 2327 87%
c i  0.06  4 157 2 213 1267  850 48% 3 13995 2326 87%
c i  0.06  4 159 2 213 1271  851 48% 3 13994 2325 87%
c i  0.06  4 159 2 213 1275  851 49% 2 13992 2313 87%
c i  0.06  4 159 2 213 1282  856 49% 2 13992 2311 86%
c i  0.06  4 159 2 213 1286  857 50% 2 13991 2310 86%
c i  0.06  4 153 2 213 1331  890 51% 2 13988 2309 86%
c i  0.06  4 154 2 213 1335  891 51% 2 13987 2308 86%
c i  0.06  4 155 2 213 1339  891 51% 2 13985 2301 86%
c i  0.06  4 160 2 213 1386  928 55% 2 13982 2284 85%
c i  0.06  4 159 2 213 1389  930 55% 2 13982 2283 85%
c 
c  seconds   reductions  redundant  irredundant
c         MB     restarts       trail     variables
c           level   conflicts       glue       remaining
c 
c i  0.07  4 120 2 213 1774 1284 59% 3 13977 2281 85%
c -  0.08  4 120 3 213 1801 1263 60% 3 13646 2281 85%
c i  0.08  4 119 3 213 1805 1266 60% 3 13646 2278 85%
c i  0.08  4 119 3 213 1905 1357 60% 3 13645 2277 85%
c i  0.08  4 119 3 213 1908 1359 60% 3 13645 2276 85%
c i  0.08  4 117 3 213 1992 1436 61% 4 13645 2275 85%
c i  0.09  4 116 3 213 2051 1481 61% 4 13640 2274 85%
c i  0.09  4 113 3 213 2165 1582 61% 4 13636 2273 85%
c i  0.09  4 112 3 213 2176 1589 61% 4 13636 2272 85%
c i  0.09  4 110 3 214 2273 1674 61% 4 13631 2271 85%
c i  0.09  4 110 3 214 2279 1675 61% 4 13629 2269 85%
c i  0.10  4 110 3 214 2349 1737 61% 4 13627 2268 85%
c i  0.10  4 111 3 214 2358 1738 62% 4 13623 2267 85%
c i  0.10  4 111 3 214 2375 1746 62% 4 13619 2266 85%
c i  0.10  4 111 3 214 2383 1748 62% 4 13616 2265 85%
c i  0.10  4 111 3 214 2397 1757 62% 4 13614 2264 85%
c i  0.10  4 112 3 214 2417 1768 62% 4 13610 2263 85%
c i  0.10  4 112 3 214 2420 1768 62% 4 13608 2262 85%
c i  0.10  4 113 3 214 2426 1769 63% 4 13606 2261 85%
c i  0.10  4 112 3 214 2430 1770 63% 4 13605 2240 84%
c 
c  seconds   reductions  redundant  irredundant
c         MB     restarts       trail     variables
c           level   conflicts       glue       remaining
c 
c i  0.10  4 112 3 214 2470 1804 63% 4 13604 2237 84%
c i  0.10  4 111 3 214 2515 1846 64% 4 13604 2236 84%
c i  0.10  4 112 3 214 2524 1849 64% 4 13603 2235 84%
c -  0.12  4 104 4 214 3001 2113 65% 7 13300 2231 83%
c i  0.12  4 104 4 214 3002 2113 43% 7 13300 2216 83%
c ]  0.12  4 104 4 214 3002 2113 43% 7 13300 2216 83%
c {  0.12  4 126 4 214 3002 2113 59% 2 13300 2216 83%
c F  0.12  4 126 4 215 3005 2116 58% 2 13300 2216 83%
c i  0.12  4 125 4 218 3017 2127 58% 2 13300 2215 83%
c i  0.12  4 122 4 232 3078 2177 57% 2 13295 2213 83%
c i  0.13  4 117 4 258 3178 2265 56% 2 13291 2203 82%
c i  0.13  4 116 4 266 3203 2288 56% 2 13291 2195 82%
c i  0.13  4 116 4 267 3204 2288 56% 2 13291 2183 82%
c i  0.13  4 109 4 295 3312 2380 53% 3 13287 2182 82%
c i  0.13  4 106 4 320 3402 2456 52% 3 13284 2181 82%
c i  0.14  4 102 4 361 3548 2586 52% 3 13281 2180 82%
c i  0.14  4 101 4 365 3565 2599 52% 3 13281 2179 82%
c i  0.15  4 93 4 427 3790 2801 50% 3 13274 2178 82%
c i  0.15  4 93 4 428 3794 2804 50% 3 13274 2177 81%
c i  0.16  4 88 4 487 4029 3011 49% 3 13266 2176 81%
c 
c  seconds  reductions  redundant  irredundant
c         MB    restarts       trail     variables
c          level   conflicts       glue       remaining
c 
c i  0.16  4 84 4 538 4216 3183 48% 3 13264 2175 81%
c i  0.17  4 84 4 541 4225 3191 48% 3 13264 2174 81%
c i  0.17  4 82 4 566 4334 3294 47% 3 13264 2173 81%
c i  0.17  4 81 4 585 4416 3363 47% 3 13260 2172 81%
c i  0.18  4 79 4 606 4499 3434 46% 3 13255 2171 81%
c -  0.18  4 79 5 607 4501 2920 46% 3 12799 2171 81%
c i  0.19  4 77 5 660 4696 3096 46% 3 12794 2170 81%
c d  0.20  4 73 5 736 5000 3253 46% 4 12699 2082 78%
c 3  0.21  4 73 5 736 5000 3592 46% 4 12641 2080 78%
c d  0.21  4 73 5 736 5000 3670 46% 4 12625 2051 77%
c d  0.21  4 73 5 736 5000 3656 46% 4 12473 2050 77%
c 2  0.21  4 73 5 736 5000 3646 46% 4 12424 2019 76%
c p  0.22  4 73 5 736 5000 4321 46% 4 12424 1988 74%
c d  0.23  4 73 5 736 5000 4014 46% 4 11891 1913 72%
c d  0.23  4 73 5 736 5000 4005 46% 4 11850 1869 70%
c s  0.26  5 67 5 867 5559 4194 45% 4 11821 1869 70%
c v  0.27  5 67 5 867 5559 4194 45% 4 11781 1869 70%
c w  0.27  5 67 5 867 5559 4179 45% 4 11781 1869 70%
c t  0.27  5 67 5 867 5559 4091 45% 4 11273 1869 70%
c e  0.31  5 67 5 867 5559  481 45% 4 9326 935 35%
c 
c  seconds  reductions  redundant irredundant
c         MB    restarts       trail    variables
c          level   conflicts       glue     remaining
c 
c s  0.31  5 67 5 867 5559  361 45% 4 9161 935 35%
c e  0.33  5 67 5 867 5559  347 45% 4 9077 919 34%
c #  0.33  5 66 5 871 6008  759 43% 4 9077 919 34%
c -  0.34  5 64 6 879 6301  919 41% 4 9077 919 34%
c }  0.35  5 62 6 886 7002 1550 40% 4 9077 919 34%
c [  0.35  5 104 6 886 7002 1550 43% 7 9077 919 34%
c i  0.37  5 84 6 887 7877 2317 33% 6 9077 918 34%
c -  0.38  5 78 7 887 8402 2705 32% 7 9061 918 34%
c I  0.41  5 62 7 888 10012 4172 35% 6 9061 918 34%
c -  0.43  5 60 8 889 10802 4362 37% 6 9061 918 34%
c -  0.50  6 52 9 890 13503 5790 39% 7 9059 918 34%
c ]  0.55  6 49 9 891 15002 7160 39% 8 9059 918 34%
c {  0.55  6 62 9 891 15002 7160 96% 4 9059 918 34%
c d  0.56  6 62 9 891 15002 7159 96% 4 9057 917 34%
c 3  0.56  6 62 9 891 15002 9590 96% 4 9052 917 34%
c 3  0.56  6 62 9 891 15002 10930 96% 4 9052 917 34%
c 2  0.57  6 62 9 891 15002 10927 96% 4 9052 917 34%
c p  0.57  6 62 9 891 15002 11260 96% 4 9052 911 34%
c B  0.57  6 62 9 892 15015 11273 96% 4 9052 911 34%
c -  0.61  6 53 10 1151 16505 7349 80% 4 8983 911 34%
c 
c  seconds  reductions     redundant irredundant
c         MB     restarts         trail    variables
c          level      conflicts       glue     remaining
c 
c i  0.65  6 47 10 1423 18138 8840 70% 4 8983 910 34%
c s  0.68  6 45 10 1553 18776 8859 67% 4 8745 910 34%
c v  0.69  6 45 10 1553 18776 8859 67% 4 8418 910 34%
c w  0.69  6 45 10 1553 18776 8832 67% 4 8418 910 34%
c t  0.69  6 45 10 1553 18776 8818 67% 4 8396 910 34%
c e  0.70  6 45 10 1553 18776 8358 67% 4 8369 900 34%
c s  0.71  6 45 10 1553 18776 8199 67% 4 8364 900 34%
c -  0.74  5 43 11 1678 19805 7670 63% 4 8364 900 34%
c W  0.78  5 40 11 1818 21016 8798 60% 4 8364 900 34%
c -  0.86  6 37 12 2322 23405 9782 54% 4 8364 900 34%
c -  0.99  6 34 13 3082 27306 11964 48% 5 8364 900 34%
c F  1.01  6 33 13 3237 28019 12611 47% 5 8364 900 34%
c d  1.10  6 32 13 3692 30003 14441 45% 5 8360 895 33%
c 3  1.10  6 32 13 3692 30003 17019 45% 5 8360 895 33%
c 3  1.11  6 32 13 3692 30003 18029 45% 5 8360 895 33%
c 2  1.11  6 32 13 3692 30003 18026 45% 5 8357 895 33%
c p  1.11  6 32 13 3692 30003 18250 45% 5 8357 894 33%
c }  1.15  6 31 13 3811 31004 19202 45% 5 8357 894 33%
c [  1.15  6 49 13 3811 31004 19202 39% 8 8357 894 33%
c -  1.17  6 48 14 3811 31506 14321 39% 8 8338 894 33%
c 
c  seconds  reductions      redundant irredundant
c         MB     restarts          trail    variables
c          level      conflicts        glue     remaining
c 
c -  1.34  7 38 15 3814 36008 15413 40% 9 8338 894 33%
c B  1.35  7 38 15 3814 36024 15426 40% 9 8338 894 33%
c s  1.43  7 36 15 3815 38075 16615 39% 9 8302 894 33%
c v  1.44  7 36 15 3815 38075 16615 39% 9 7983 894 33%
c w  1.45  7 36 15 3815 38075 16594 39% 9 7983 894 33%
c t  1.45  7 36 15 3815 38075 16587 39% 9 7978 894 33%
c e  1.45  7 36 15 3815 38075 16051 39% 9 7970 885 33%
c s  1.47  7 36 15 3815 38075 15915 39% 9 7964 885 33%
c -  1.58  7 33 16 3817 40808 14552 38% 9 7964 885 33%
c W  1.76  7 31 16 3818 45029 18136 37% 10 7964 885 33%
c -  1.80  7 30 17 3818 45908 15509 37% 10 7964 885 33%
c 3  1.98  7 29 17 3819 50003 21411 38% 10 7964 885 33%
c 3  1.98  7 29 17 3819 50003 22439 38% 10 7964 885 33%
c p  1.99  7 29 17 3819 50003 22654 38% 10 7964 885 33%
c -  2.05  7 28 18 3819 51310 16959 38% 10 7964 885 33%
c O  2.21  7 28 18 3820 55031 20223 39% 10 7964 885 33%
c -  2.28  7 27 19 3822 57012 18001 38% 10 7964 885 33%
c ]  2.51  7 25 19 3826 63005 22962 37% 10 7964 885 33%
c {  2.51  7 31 19 3826 63005 22962 45% 5 7964 885 33%
c -  2.51  7 31 20 3826 63012 18403 45% 5 7964 885 33%
c 
c  seconds  reductions      redundant irredundant
c         MB     restarts          trail    variables
c          level      conflicts        glue     remaining
c 
c s  2.56  8 31 20 3928 63433 18531 44% 5 7963 885 33%
c v  2.57  8 31 20 3928 63433 18531 44% 5 7557 885 33%
c w  2.58  8 31 20 3928 63433 18511 44% 5 7557 885 33%
c t  2.58  8 31 20 3928 63433 18509 44% 5 7557 885 33%
c s  2.61  8 31 20 3928 63433 18438 44% 5 7555 885 33%
c e  2.61  8 31 20 3928 63433 17413 44% 5 7555 884 33%
c B  2.73  8 30 20 4471 66032 19839 42% 5 7555 884 33%
c -  2.90  7 28 21 5091 69312 19460 41% 5 7555 884 33%
c d  3.21  7 26 21 6307 75003 24737 38% 6 7552 882 33%
c 3  3.21  7 26 21 6307 75003 27347 38% 6 7552 882 33%
c 3  3.22  7 26 21 6307 75003 28299 38% 6 7552 882 33%
c 2  3.22  7 26 21 6307 75003 28299 38% 6 7551 882 33%
c p  3.23  7 26 21 6307 75003 28517 38% 6 7551 882 33%
c -  3.28  9 26 22 6449 75915 22968 38% 6 7551 882 33%
c W  3.41  9 25 22 6839 78040 24927 38% 6 7551 882 33%
c -  3.68 11 24 23 7555 82818 25516 36% 6 7551 882 33%
c -  4.10 11 23 24 8680 90018 27965 35% 6 7551 882 33%
c #  4.16 11 23 24 8849 91041 28875 35% 6 7551 882 33%
c s  4.42 11 22 24 9475 94387 30894 35% 6 7541 882 33%
c v  4.43 11 22 24 9475 94387 30894 35% 6 7307 882 33%
c 
c  seconds  reductions      redundant irredundant
c         MB     restarts          trail    variables
c          level      conflicts        glue     remaining
c 
c w  4.45 11 22 24 9475 94387 30866 35% 6 7307 882 33%
c t  4.45 11 22 24 9475 94387 30864 35% 6 7307 882 33%
c e  4.45 11 22 24 9475 94387 30117 35% 6 7303 873 33%
c s  4.50 11 22 24 9475 94387 29908 35% 6 7299 873 33%
c -  4.71 11 22 25 10101 97520 28656 35% 6 7299 873 33%
c d  5.18 11 21 25 11297 105003 35281 34% 6 7299 872 33%
c 3  5.18 11 21 25 11297 105003 38614 34% 6 7299 872 33%
c 3  5.19 11 21 25 11297 105003 39673 34% 6 7299 872 33%
c 2  5.19 11 21 25 11297 105003 39670 34% 6 7296 872 33%
c p  5.20 11 21 25 11297 105003 39892 34% 6 7296 872 33%
c B  5.20 11 21 25 11307 105042 39930 34% 6 7296 872 33%
c -  5.23 11 21 26 11353 105323 31036 34% 6 7296 872 33%
c -  5.72 11 20 27 12439 113423 33389 33% 7 7296 872 33%
c W  6.15 11 19 27 13248 120044 39223 33% 7 7296 872 33%
c -  6.26 11 19 28 13448 121825 35398 33% 7 7296 872 33%
c i  6.31 11 19 28 13448 122827 36074 33% 7 7296 871 33%
c }  6.55 11 19 28 13865 127008 39623 33% 7 7296 871 33%
c [  6.55 11 25 28 13865 127008 39623 37% 10 7296 871 33%
c -  6.75 11 24 29 13865 130525 36021 37% 10 7282 871 33%
c s  6.84 12 24 29 13865 131152 35337 37% 10 7278 871 33%
c 
c  seconds  reductions        redundant  irredundant
c         MB      restarts           trail     variables
c          level       conflicts         glue      remaining
c 
c v  6.85 12 24 29 13865 131152 35337 37% 10 7143 871 33%
c w  6.88 12 24 29 13865 131152 35300 37% 10 7143 871 33%
c t  6.88 12 24 29 13865 131152 35296 37% 10 7141 871 33%
c e  6.88 12 24 29 13865 131152 35110 37% 10 7139 869 33%
c s  6.94 12 24 29 13865 131152 34774 37% 10 7137 869 33%
c e  6.95 12 24 29 13865 131152 34736 37% 10 7137 868 32%
c B  7.20 12 23 29 13869 136045 38802 36% 10 7137 868 32%
c -  7.37 12 23 30 13872 139525 35860 36% 10 7137 868 32%
c 3  7.40 12 23 30 13872 140004 39109 36% 10 7137 868 32%
c 3  7.41 12 23 30 13872 140004 40211 36% 10 7137 868 32%
c 2  7.41 12 23 30 13872 140004 40208 36% 10 7137 868 32%
c p  7.42 12 23 30 13872 140004 40491 36% 10 7137 868 32%
c i  7.78 12 21 30 13873 146587 45626 35% 10 7137 810 30%
c i  7.84 10 21 30 13873 147556 32184 25% 10 6687 777 29%
c i  7.84 10 21 30 13873 147720 32300 25% 10 6687 772 29%
c i  7.84 10 21 30 13873 147721 32300 25% 10 6687 770 29%
c ]  7.84 10 21 30 13873 147723 32300 25% 10 6687 684 26%
c 0  7.84 10 21 30 13873 147723 32300 25% 10 6687 684 26%
c 
c --- [ result ] -------------------------------------------------------------
c 
s UNSATISFIABLE
c 
c --- [ run-time profiling ] -------------------------------------------------
c 
c process time taken by individual solving procedures
c (percentage relative to process time for solving)
c 
c         7.14   91.21% search
c         4.44   56.66% unstable
c         2.64   33.76% stable
c         0.69    8.79% simplify
c         0.32    4.14% subsume
c         0.12    1.54% vivify
c         0.09    1.16% elim
c         0.07    0.91% ternary
c         0.06    0.77% walk
c         0.03    0.42% probe
c         0.01    0.19% parse
c         0.00    0.01% lucky
c   =================================
c         7.83   99.81% solve
c 
c last line shows process time for solving
c (percentage relative to total process time)
c 
c --- [ statistics ] ---------------------------------------------------------
c 
c chronological:             41236        27.91 %  of conflicts
c conflicts:                147723     18869.26    per second
c decisions:                465419     59449.86    per second
c eliminated:                  967        36.19 %  of all variables
c fixed:                       727        27.21 %  of all variables
c learned:                  143078        96.86 %  per conflict
c learned_lits:            3406833       100.00 %  learned literals
c minimized:                     0         0.00 %  learned literals
c shrunken:                 586461        17.21 %  learned literals
c minishrunken:             459293        13.48 %  learned literals
c otfs:                       2284         1.55 %  of conflict
c propagations:           12127660         1.55 M  per second
c reduced:                   75135        50.86 %  per conflict
c rephased:                     16      9232.69    interval
c restarts:                  13873        10.65    interval
c stabilizing:                   4        42.36 %  of conflicts
c substituted:                 194         7.26 %  of all variables
c subsumed:                  21376        10.84 %  of all clauses
c strengthened:              24192        12.27 %  of all clauses
c ternary:                   23278         2.03 %  of resolved
c trail reuses:                  0         0.00 %  of incremental calls
c vivified:                   1728         0.88 %  of all clauses
c walked:                        4     36930.75    interval
c weakened:                   8566         2.54    average size
c 
c seconds are measured in process time for solving
c 
c --- [ resources ] ----------------------------------------------------------
c 
c total process time since initialization:         7.84    seconds
c total real time since initialization:            7.85    seconds
c maximum resident set size of process:           14.59    MB
c 
c --- [ shutting down ] ------------------------------------------------------
c 
c exit 20
